
Gurobi 7.0.2 (linux64) logging started Mon Jun 12 12:39:08 2017

Changed value of parameter logfile to result/NEIS-20170612T0949/scenario_300000PVS30PVWE10var-cost0075.log
   Prev: gurobi.log  Default: 
Optimize a model with 1059933 rows, 937229 columns and 3979188 nonzeros
Coefficient statistics:
  Matrix range     [8e-04, 1e+05]
  Objective range  [1e+00, 1e+00]
  Bounds range     [0e+00, 0e+00]
  RHS range        [3e-03, 3e+05]

Concurrent LP optimizer: primal simplex, dual simplex, and barrier
Showing barrier log only...

Presolve removed 594694 rows and 643281 columns
Presolve time: 2.65s
Presolved: 465239 rows, 293948 columns, 1347043 nonzeros

Ordering time: 0.40s

Barrier statistics:
 Dense cols : 21
 AA' NZ     : 1.881e+06
 Factor NZ  : 6.959e+06 (roughly 400 MBytes of memory)
 Factor Ops : 1.640e+08 (less than 1 second per iteration)
 Threads    : 22

                  Objective                Residual
Iter       Primal          Dual         Primal    Dual     Compl     Time
   0   3.86574717e+11 -2.66484615e+11  9.53e+02 6.93e+03  2.20e+07     4s
   1   3.06106603e+11 -9.69731173e+10  6.93e+02 1.33e+04  7.03e+06     4s
   2   2.98834101e+11 -6.90010491e+10  6.86e+02 8.97e+03  5.68e+06     5s
   3   2.08057693e+11 -1.19300966e+11  4.79e+02 1.96e+03  5.34e+06     6s
   4   3.80532903e+10 -1.16951746e+11  6.20e+01 1.55e+02  8.36e+05     6s
   5   4.15267627e+09 -6.09960598e+10  5.48e+00 2.46e+00  1.31e+05     7s
   6   4.68255692e+08 -1.70011462e+10  2.72e-01 3.27e-06  2.51e+04     7s
   7   2.42962777e+08 -2.39212327e+09  3.44e-02 3.94e-07  3.66e+03     8s
   8   1.26144161e+08 -7.59787146e+08  2.18e-03 1.21e-07  1.22e+03     8s
   9   8.93992078e+07 -6.95853402e+07  5.58e-04 6.78e-08  2.20e+02     9s
  10   7.85922872e+07 -5.46255004e+07  4.42e-04 7.38e-08  1.84e+02     9s
  11   7.53875687e+07 -4.33026239e+07  4.08e-04 4.31e-08  1.64e+02    10s
  12   6.90287082e+07 -1.82214898e+07  3.53e-04 4.45e-08  1.21e+02    10s
  13   4.27926129e+07 -3.02452582e+06  1.96e-04 1.43e-08  6.33e+01    10s
  14   3.01628607e+07  8.32050858e+06  1.07e-04 4.09e-09  3.02e+01    11s
  15   2.62618022e+07  1.03991009e+07  8.33e-05 1.43e-09  2.19e+01    11s
  16   2.27191508e+07  1.13692330e+07  6.05e-05 1.80e-09  1.57e+01    12s
  17   2.06726172e+07  1.18266967e+07  4.86e-05 8.15e-10  1.22e+01    12s
  18   1.75992069e+07  1.19576325e+07  2.74e-05 1.29e-09  7.79e+00    13s
  19   1.68687996e+07  1.22820892e+07  2.22e-05 4.80e-10  6.33e+00    13s
  20   1.63982549e+07  1.27464477e+07  1.89e-05 4.80e-10  5.04e+00    14s
  21   1.53462930e+07  1.29853307e+07  1.15e-05 4.66e-10  3.26e+00    14s
  22   1.47827954e+07  1.31743912e+07  7.55e-06 4.07e-10  2.22e+00    15s
  23   1.44598645e+07  1.33276694e+07  5.24e-06 3.55e-09  1.56e+00    15s
  24   1.42700311e+07  1.35087549e+07  3.84e-06 4.66e-09  1.05e+00    16s
  25   1.40848656e+07  1.35801507e+07  2.57e-06 1.09e-08  6.97e-01    16s
  26   1.39880440e+07  1.36086470e+07  1.92e-06 1.43e-08  5.24e-01    17s
  27   1.39385288e+07  1.36230561e+07  1.60e-06 1.33e-08  4.36e-01    17s
  28   1.38714649e+07  1.36354421e+07  1.15e-06 1.27e-08  3.26e-01    18s
  29   1.38317439e+07  1.36475307e+07  8.92e-07 1.43e-08  2.54e-01    18s
  30   1.37860012e+07  1.36590077e+07  6.01e-07 1.64e-08  1.75e-01    18s
  31   1.37598799e+07  1.36671882e+07  4.31e-07 9.31e-09  1.28e-01    19s
  32   1.37437743e+07  1.36748644e+07  3.29e-07 1.26e-08  9.52e-02    19s
  33   1.37297688e+07  1.36781186e+07  2.40e-07 1.51e-08  7.13e-02    20s
  34   1.37242520e+07  1.36823557e+07  2.05e-07 1.20e-08  5.79e-02    21s
  35   1.37192303e+07  1.36837083e+07  1.73e-07 1.14e-08  4.91e-02    21s
  36   1.37157337e+07  1.36851058e+07  1.51e-07 1.02e-08  4.23e-02    21s
  37   1.37072406e+07  1.36865841e+07  9.74e-08 1.68e-08  2.85e-02    22s
  38   1.37041048e+07  1.36879534e+07  7.78e-08 1.39e-08  2.23e-02    22s
  39   1.37025519e+07  1.36884031e+07  6.80e-08 1.58e-08  1.95e-02    23s
  40   1.37008005e+07  1.36891069e+07  5.79e-08 1.05e-08  1.61e-02    23s
  41   1.36977354e+07  1.36897931e+07  3.98e-08 6.81e-09  1.10e-02    24s
  42   1.36962584e+07  1.36902234e+07  3.09e-08 7.68e-09  8.33e-03    24s
  43   1.36956885e+07  1.36904391e+07  2.73e-08 8.67e-09  7.25e-03    25s
  44   1.36951478e+07  1.36905877e+07  2.39e-08 8.38e-09  6.30e-03    25s
  45   1.36946885e+07  1.36906299e+07  2.10e-08 6.11e-09  5.60e-03    26s
  46   1.36945317e+07  1.36906633e+07  2.00e-08 8.79e-09  5.34e-03    26s
  47   1.36941286e+07  1.36907517e+07  1.75e-08 2.77e-09  4.66e-03    26s
  48   1.36939052e+07  1.36908514e+07  1.61e-08 1.27e-08  4.22e-03    27s
  49   1.36937241e+07  1.36909074e+07  1.49e-08 7.57e-09  3.89e-03    28s
  50   1.36932990e+07  1.36909579e+07  1.24e-08 1.11e-08  3.23e-03    28s
  51   1.36931574e+07  1.36909882e+07  1.15e-08 1.18e-08  3.00e-03    28s
  52   1.36930534e+07  1.36910238e+07  1.08e-08 1.71e-08  2.80e-03    29s
  53   1.36929017e+07  1.36910409e+07  9.83e-09 1.51e-08  2.57e-03    29s
  54   1.36927522e+07  1.36910897e+07  8.90e-09 1.31e-08  2.30e-03    30s
  55   1.36926606e+07  1.36911056e+07  8.31e-09 1.34e-08  2.15e-03    30s
  56   1.36925877e+07  1.36911398e+07  7.83e-09 1.11e-08  2.00e-03    31s
  57   1.36924926e+07  1.36911468e+07  7.24e-09 6.11e-09  1.86e-03    31s
  58   1.36923475e+07  1.36912173e+07  6.36e-09 6.26e-10  1.56e-03    32s
  59   1.36920626e+07  1.36912643e+07  4.45e-09 1.62e-08  1.10e-03    32s
  60   1.36919481e+07  1.36912858e+07  3.71e-09 1.23e-08  9.14e-04    33s
  61   1.36918095e+07  1.36913037e+07  2.81e-09 4.66e-09  6.98e-04    33s
  62   1.36916776e+07  1.36913132e+07  2.00e-09 1.46e-09  5.03e-04    34s
  63   1.36916638e+07  1.36913247e+07  1.90e-09 1.49e-09  4.68e-04    34s
  64   1.36915451e+07  1.36913454e+07  1.09e-09 3.32e-09  2.76e-04    35s
  65   1.36915112e+07  1.36913556e+07  8.89e-10 2.74e-09  2.15e-04    36s
  66   1.36914560e+07  1.36913592e+07  5.14e-10 1.63e-09  1.34e-04    37s
  67   1.36914464e+07  1.36913625e+07  1.86e-08 5.24e-10  1.16e-04    37s
  68   1.36914440e+07  1.36913648e+07  6.62e-07 4.66e-09  1.09e-04    38s
  69   1.36914352e+07  1.36913669e+07  1.04e-06 4.42e-09  9.42e-05    38s
  70   1.36914253e+07  1.36913676e+07  8.68e-07 7.57e-10  7.97e-05    39s
  71   1.36914253e+07  1.36913676e+07  1.78e-06 5.94e-09  7.96e-05    40s
  72   1.36914170e+07  1.36913689e+07  1.47e-06 2.33e-09  6.64e-05    40s
  73   1.36914138e+07  1.36913704e+07  1.35e-06 3.33e-08  6.00e-05    41s
  74   1.36914129e+07  1.36913718e+07  1.32e-06 1.82e-08  5.68e-05    42s
  75   1.36914078e+07  1.36913724e+07  1.13e-06 2.82e-09  4.88e-05    42s
  76   1.36914025e+07  1.36913744e+07  1.00e-06 3.90e-08  3.88e-05    43s
  77   1.36914024e+07  1.36913744e+07  2.66e-06 3.91e-08  3.87e-05    43s
  78   1.36914024e+07  1.36913744e+07  2.66e-06 3.93e-08  3.87e-05    44s
  79   1.36914024e+07  1.36913744e+07  2.65e-06 4.37e-10  3.87e-05    45s
  80   1.36914024e+07  1.36913744e+07  2.65e-06 5.89e-10  3.87e-05    46s
  81   1.36914024e+07  1.36913744e+07  2.65e-06 4.66e-10  3.87e-05    47s
  82   1.36913922e+07  1.36913747e+07  1.75e-06 4.99e-08  2.42e-05    48s
  83   1.36913922e+07  1.36913747e+07  1.74e-06 3.00e-09  2.41e-05    48s
  84   1.36913922e+07  1.36913747e+07  1.78e-06 2.99e-09  2.41e-05    49s
  85   1.36913922e+07  1.36913747e+07  1.78e-06 1.35e-09  2.41e-05    50s
  86   1.36913922e+07  1.36913747e+07  1.78e-06 9.75e-10  2.41e-05    51s
  87   1.36913921e+07  1.36913747e+07  1.77e-06 8.29e-10  2.40e-05    52s
  88   1.36913921e+07  1.36913747e+07  1.77e-06 1.18e-09  2.40e-05    52s
  89   1.36913921e+07  1.36913747e+07  1.77e-06 1.14e-09  2.40e-05    53s
  90   1.36913921e+07  1.36913747e+07  1.77e-06 1.16e-09  2.40e-05    54s
  91   1.36913921e+07  1.36913747e+07  1.77e-06 6.69e-10  2.40e-05    55s
  92   1.36913921e+07  1.36913747e+07  1.77e-06 1.31e-09  2.40e-05    56s

Barrier performed 92 iterations in 55.84 seconds
Sub-optimal termination - objective 1.36914025e+07

Crossover log...

  189902 DPushes remaining with DInf 0.0000000e+00                56s
   58396 DPushes remaining with DInf 0.0000000e+00                60s
   50564 DPushes remaining with DInf 0.0000000e+00                65s
   44512 DPushes remaining with DInf 0.0000000e+00                70s
   39172 DPushes remaining with DInf 0.0000000e+00                75s
   29560 DPushes remaining with DInf 0.0000000e+00                80s
   21728 DPushes remaining with DInf 0.0000000e+00                85s
   14376 DPushes remaining with DInf 0.0000000e+00                90s
    6726 DPushes remaining with DInf 0.0000000e+00                95s
       0 DPushes remaining with DInf 4.0546485e-09                97s

  170119 PPushes remaining with PInf 1.4119267e-02                97s
   31082 PPushes remaining with PInf 2.0552844e-01               101s
       0 PPushes remaining with PInf 1.3776922e-05               103s

  Push phase complete: Pinf 1.3776922e-05, Dinf 9.7908403e+02    103s

Iteration    Objective       Primal Inf.    Dual Inf.      Time
  359419    1.3691377e+07   0.000000e+00   9.790840e+02    104s
  359613    1.3691377e+07   0.000000e+00   0.000000e+00    105s

Solved with barrier
Solved in 359613 iterations and 105.04 seconds
Optimal objective  1.369137703e+07
